c Graph from 120 esercizi di ricerca operativa
c A simple file example, taken from foundamentals of operations research.
p sp 8 15
a 1 2 2
a 1 4 6
a 1 7 4
a 2 4 3
a 2 6 10 
a 2 8 5
a 3 4 8
a 3 5 5
a 3 6 6
a 3 8 3
a 4 7 5
a 5 6 6
a 5 7 6
a 6 7 11
a 6 8 9